(declare-fun a () Int)
(declare-fun b () Int)
(declare-fun c () Int)
(declare-fun d () Int)
(declare-fun e () Int)
(declare-fun f () Int)
(declare-fun g () Int)
(declare-fun h () Int)
(declare-fun i () Int)
(declare-fun j () Int)
(declare-fun k () Int)
(declare-fun l () Int)
(declare-fun m () Int)
(declare-fun n () Int)
(declare-fun o () Int)
(declare-fun p () Int)
(declare-fun q () Int)
(declare-fun r () Int)
(declare-fun s () Int)
(declare-fun t () Int)
(declare-fun u () Int)
(declare-fun v () Int)
(push)
(assert (and (<= (- 1) e) (<= (- 1) f 1) (<= r v 1) (<= (- 1) g 1) (distinct (- 1) h) (<= h 1) (>= i 0) (>= j 0) (>= k 0) (> (- i k (+ m k) u) 0) (= (+ (+ (- 1) i e j) k) 0 (- i (+ f j) (* g k)) 0 (- (- v j) (* h k)))))
(check-sat)
(assert (and (>= n 0) (>= o 0) (> (+ n c (* n p) m) 0) (distinct (+ l (- f o) (* g p)) 0) (= (+ (* v o) p (- (+ g h))) 0)))
(check-sat)
(assert (and (= (+ q r) 0) (distinct (+ a d) 0) (<= (+ l (* e q) f v) 0) (< (+ m r (* g d) (* h b)) 0)))
(check-sat)
(assert (and (< s 0) (<= t 0) (>= u 0) (distinct (+ (+ 1 s) (* l t)) 0) (= (+ (+ (- 1) s) (* e t) u) 0 (+ s (* f t) (* g u)) 0 (+ (* v t) (- h u)))))
(check-sat)
